3 
4  41 56 
5  10 28 46 
6  06 21 36 48 
7  03 18 33 48 
8  03 18 33 48 
9  03 18 33 48 
10  03 18 33 48 
11  03 18 33 48 
12  03 18 33 48 
13  03 19 34 49 
14  04 19 34 49 
15  04 19 34 49 
16  04 19 34 49 
17  04 19 34 49 
18  04 19 34 49 
19  04 18 33 48 
20  03 18 33 48 
21  03 18 33 48 
22  03 18 33 48 
23  03 16 38 
0 
